; benchmark generated from python API
(set-info :status unknown)
(declare-datatypes ((RealState 0)) (((RMk1 (rval1 Real)) (RMk2 (rval2 Real)))))
 (declare-fun I2uscore1dollarskuscore650 () Real)
(declare-fun ep () Real)
(declare-fun V () Real)
(declare-fun v2uscore1dollarskuscore650 () Real)
(declare-fun v1uscore1dollarskuscore650 () Real)
(declare-fun t2029uscore0 () Real)
(declare-fun x1uscore1dollarskuscore443 () Real)
(declare-fun xI1 () Real)
(declare-fun A () Real)
(declare-fun v2 () Real)
(declare-fun v1 () Real)
(declare-fun B () Real)
(declare-fun x2 () Real)
(declare-fun xI2 () Real)
(declare-fun I2 () Real)
(declare-fun x1 () Real)
(declare-fun I1 () Real)
(declare-fun I1uscore1dollarskuscore650 () Real)
(declare-fun x2uscore1dollarskuscore468 () Real)
(assert
 (let (($x124 (exists ((ts2029uscore0_st RealState) (val!23 Real) )(let (($x76 (= I2uscore1dollarskuscore650 2.0)))
 (let (($x111 (or (= 2.0 2.0) $x76)))
 (let (($x106 (and (>= v1uscore1dollarskuscore650 0.0) (<= v1uscore1dollarskuscore650 V))))
 (let (($x166 (and (and $x106 (>= v2uscore1dollarskuscore650 0.0)) (<= v2uscore1dollarskuscore650 V))))
 (let (($x113 (=> (and (<= 0.0 (rval2 ts2029uscore0_st)) (<= (rval2 ts2029uscore0_st) t2029uscore0)) (and $x166 (<= (+ (rval2 ts2029uscore0_st) 0.0) ep)))))
 (let (($x149 (>= t2029uscore0 0.0)))
 (let (($x139 (= xI1 x1uscore1dollarskuscore443)))
 (let (($x177 (and (= v2uscore1dollarskuscore650 V) (= xI2 x2uscore1dollarskuscore468))))
 (let (($x147 (and (and $x177 (= v1uscore1dollarskuscore650 0.0)) (= I1uscore1dollarskuscore650 1.0))))
 (let (($x123 (and (and (and $x147 (< xI1 x1uscore1dollarskuscore443)) $x76) (= I1 2.0))))
 (let (($x92 (and (and (and $x123 (< xI1 x1)) (= I2 2.0)) (< xI2 x2))))
 (let (($x245 (and (and (and $x92 (> B 0.0)) (>= v1 0.0)) (<= v1 V))))
 (let (($x50 (and (and (and $x245 (>= v2 0.0)) (<= v2 V)) (>= A 0.0))))
 (let (($x22 (and (and $x50 (> V 0.0)) (> ep 0.0))))
 (let (($x94 (not (= ts2029uscore0_st (RMk1 val!23)))))
 (and $x94 (=> $x22 (or $x139 (=> (and $x149 $x113) $x111))))))))))))))))))))
 ))
 (not $x124)))
(check-sat)
